60

 0   1   2   3   1   2   3   4   2   3   4   5   3   4   5   6   4   5   6   7   5   6   7   8   6   7   8   9   7   8   9  10   8   9  10  11   9  10  11  12  10  11  12  13  11  12  13  14  12  13  14  15  13  14  15  16  14  15  16  17  
 1   0   1   2   2   1   2   3   3   2   3   4   4   3   4   5   5   4   5   6   6   5   6   7   7   6   7   8   8   7   8   9   9   8   9  10  10   9  10  11  11  10  11  12  12  11  12  13  13  12  13  14  14  13  14  15  15  14  15  16  
 2   1   0   1   3   2   1   2   4   3   2   3   5   4   3   4   6   5   4   5   7   6   5   6   8   7   6   7   9   8   7   8  10   9   8   9  11  10   9  10  12  11  10  11  13  12  11  12  14  13  12  13  15  14  13  14  16  15  14  15  
 3   2   1   0   4   3   2   1   5   4   3   2   6   5   4   3   7   6   5   4   8   7   6   5   9   8   7   6  10   9   8   7  11  10   9   8  12  11  10   9  13  12  11  10  14  13  12  11  15  14  13  12  16  15  14  13  17  16  15  14  
 1   2   3   4   0   1   2   3   1   2   3   4   2   3   4   5   3   4   5   6   4   5   6   7   5   6   7   8   6   7   8   9   7   8   9  10   8   9  10  11   9  10  11  12  10  11  12  13  11  12  13  14  12  13  14  15  13  14  15  16  
 2   1   2   3   1   0   1   2   2   1   2   3   3   2   3   4   4   3   4   5   5   4   5   6   6   5   6   7   7   6   7   8   8   7   8   9   9   8   9  10  10   9  10  11  11  10  11  12  12  11  12  13  13  12  13  14  14  13  14  15  
 3   2   1   2   2   1   0   1   3   2   1   2   4   3   2   3   5   4   3   4   6   5   4   5   7   6   5   6   8   7   6   7   9   8   7   8  10   9   8   9  11  10   9  10  12  11  10  11  13  12  11  12  14  13  12  13  15  14  13  14  
 4   3   2   1   3   2   1   0   4   3   2   1   5   4   3   2   6   5   4   3   7   6   5   4   8   7   6   5   9   8   7   6  10   9   8   7  11  10   9   8  12  11  10   9  13  12  11  10  14  13  12  11  15  14  13  12  16  15  14  13  
 2   3   4   5   1   2   3   4   0   1   2   3   1   2   3   4   2   3   4   5   3   4   5   6   4   5   6   7   5   6   7   8   6   7   8   9   7   8   9  10   8   9  10  11   9  10  11  12  10  11  12  13  11  12  13  14  12  13  14  15  
 3   2   3   4   2   1   2   3   1   0   1   2   2   1   2   3   3   2   3   4   4   3   4   5   5   4   5   6   6   5   6   7   7   6   7   8   8   7   8   9   9   8   9  10  10   9  10  11  11  10  11  12  12  11  12  13  13  12  13  14  
 4   3   2   3   3   2   1   2   2   1   0   1   3   2   1   2   4   3   2   3   5   4   3   4   6   5   4   5   7   6   5   6   8   7   6   7   9   8   7   8  10   9   8   9  11  10   9  10  12  11  10  11  13  12  11  12  14  13  12  13  
 5   4   3   2   4   3   2   1   3   2   1   0   4   3   2   1   5   4   3   2   6   5   4   3   7   6   5   4   8   7   6   5   9   8   7   6  10   9   8   7  11  10   9   8  12  11  10   9  13  12  11  10  14  13  12  11  15  14  13  12  
 3   4   5   6   2   3   4   5   1   2   3   4   0   1   2   3   1   2   3   4   2   3   4   5   3   4   5   6   4   5   6   7   5   6   7   8   6   7   8   9   7   8   9  10   8   9  10  11   9  10  11  12  10  11  12  13  11  12  13  14  
 4   3   4   5   3   2   3   4   2   1   2   3   1   0   1   2   2   1   2   3   3   2   3   4   4   3   4   5   5   4   5   6   6   5   6   7   7   6   7   8   8   7   8   9   9   8   9  10  10   9  10  11  11  10  11  12  12  11  12  13  
 5   4   3   4   4   3   2   3   3   2   1   2   2   1   0   1   3   2   1   2   4   3   2   3   5   4   3   4   6   5   4   5   7   6   5   6   8   7   6   7   9   8   7   8  10   9   8   9  11  10   9  10  12  11  10  11  13  12  11  12  
 6   5   4   3   5   4   3   2   4   3   2   1   3   2   1   0   4   3   2   1   5   4   3   2   6   5   4   3   7   6   5   4   8   7   6   5   9   8   7   6  10   9   8   7  11  10   9   8  12  11  10   9  13  12  11  10  14  13  12  11  
 4   5   6   7   3   4   5   6   2   3   4   5   1   2   3   4   0   1   2   3   1   2   3   4   2   3   4   5   3   4   5   6   4   5   6   7   5   6   7   8   6   7   8   9   7   8   9  10   8   9  10  11   9  10  11  12  10  11  12  13  
 5   4   5   6   4   3   4   5   3   2   3   4   2   1   2   3   1   0   1   2   2   1   2   3   3   2   3   4   4   3   4   5   5   4   5   6   6   5   6   7   7   6   7   8   8   7   8   9   9   8   9  10  10   9  10  11  11  10  11  12  
 6   5   4   5   5   4   3   4   4   3   2   3   3   2   1   2   2   1   0   1   3   2   1   2   4   3   2   3   5   4   3   4   6   5   4   5   7   6   5   6   8   7   6   7   9   8   7   8  10   9   8   9  11  10   9  10  12  11  10  11  
 7   6   5   4   6   5   4   3   5   4   3   2   4   3   2   1   3   2   1   0   4   3   2   1   5   4   3   2   6   5   4   3   7   6   5   4   8   7   6   5   9   8   7   6  10   9   8   7  11  10   9   8  12  11  10   9  13  12  11  10  
 5   6   7   8   4   5   6   7   3   4   5   6   2   3   4   5   1   2   3   4   0   1   2   3   1   2   3   4   2   3   4   5   3   4   5   6   4   5   6   7   5   6   7   8   6   7   8   9   7   8   9  10   8   9  10  11   9  10  11  12  
 6   5   6   7   5   4   5   6   4   3   4   5   3   2   3   4   2   1   2   3   1   0   1   2   2   1   2   3   3   2   3   4   4   3   4   5   5   4   5   6   6   5   6   7   7   6   7   8   8   7   8   9   9   8   9  10  10   9  10  11  
 7   6   5   6   6   5   4   5   5   4   3   4   4   3   2   3   3   2   1   2   2   1   0   1   3   2   1   2   4   3   2   3   5   4   3   4   6   5   4   5   7   6   5   6   8   7   6   7   9   8   7   8  10   9   8   9  11  10   9  10  
 8   7   6   5   7   6   5   4   6   5   4   3   5   4   3   2   4   3   2   1   3   2   1   0   4   3   2   1   5   4   3   2   6   5   4   3   7   6   5   4   8   7   6   5   9   8   7   6  10   9   8   7  11  10   9   8  12  11  10   9  
 6   7   8   9   5   6   7   8   4   5   6   7   3   4   5   6   2   3   4   5   1   2   3   4   0   1   2   3   1   2   3   4   2   3   4   5   3   4   5   6   4   5   6   7   5   6   7   8   6   7   8   9   7   8   9  10   8   9  10  11  
 7   6   7   8   6   5   6   7   5   4   5   6   4   3   4   5   3   2   3   4   2   1   2   3   1   0   1   2   2   1   2   3   3   2   3   4   4   3   4   5   5   4   5   6   6   5   6   7   7   6   7   8   8   7   8   9   9   8   9  10  
 8   7   6   7   7   6   5   6   6   5   4   5   5   4   3   4   4   3   2   3   3   2   1   2   2   1   0   1   3   2   1   2   4   3   2   3   5   4   3   4   6   5   4   5   7   6   5   6   8   7   6   7   9   8   7   8  10   9   8   9  
 9   8   7   6   8   7   6   5   7   6   5   4   6   5   4   3   5   4   3   2   4   3   2   1   3   2   1   0   4   3   2   1   5   4   3   2   6   5   4   3   7   6   5   4   8   7   6   5   9   8   7   6  10   9   8   7  11  10   9   8  
 7   8   9  10   6   7   8   9   5   6   7   8   4   5   6   7   3   4   5   6   2   3   4   5   1   2   3   4   0   1   2   3   1   2   3   4   2   3   4   5   3   4   5   6   4   5   6   7   5   6   7   8   6   7   8   9   7   8   9  10  
 8   7   8   9   7   6   7   8   6   5   6   7   5   4   5   6   4   3   4   5   3   2   3   4   2   1   2   3   1   0   1   2   2   1   2   3   3   2   3   4   4   3   4   5   5   4   5   6   6   5   6   7   7   6   7   8   8   7   8   9  
 9   8   7   8   8   7   6   7   7   6   5   6   6   5   4   5   5   4   3   4   4   3   2   3   3   2   1   2   2   1   0   1   3   2   1   2   4   3   2   3   5   4   3   4   6   5   4   5   7   6   5   6   8   7   6   7   9   8   7   8  
10   9   8   7   9   8   7   6   8   7   6   5   7   6   5   4   6   5   4   3   5   4   3   2   4   3   2   1   3   2   1   0   4   3   2   1   5   4   3   2   6   5   4   3   7   6   5   4   8   7   6   5   9   8   7   6  10   9   8   7  
 8   9  10  11   7   8   9  10   6   7   8   9   5   6   7   8   4   5   6   7   3   4   5   6   2   3   4   5   1   2   3   4   0   1   2   3   1   2   3   4   2   3   4   5   3   4   5   6   4   5   6   7   5   6   7   8   6   7   8   9  
 9   8   9  10   8   7   8   9   7   6   7   8   6   5   6   7   5   4   5   6   4   3   4   5   3   2   3   4   2   1   2   3   1   0   1   2   2   1   2   3   3   2   3   4   4   3   4   5   5   4   5   6   6   5   6   7   7   6   7   8  
10   9   8   9   9   8   7   8   8   7   6   7   7   6   5   6   6   5   4   5   5   4   3   4   4   3   2   3   3   2   1   2   2   1   0   1   3   2   1   2   4   3   2   3   5   4   3   4   6   5   4   5   7   6   5   6   8   7   6   7  
11  10   9   8  10   9   8   7   9   8   7   6   8   7   6   5   7   6   5   4   6   5   4   3   5   4   3   2   4   3   2   1   3   2   1   0   4   3   2   1   5   4   3   2   6   5   4   3   7   6   5   4   8   7   6   5   9   8   7   6  
 9  10  11  12   8   9  10  11   7   8   9  10   6   7   8   9   5   6   7   8   4   5   6   7   3   4   5   6   2   3   4   5   1   2   3   4   0   1   2   3   1   2   3   4   2   3   4   5   3   4   5   6   4   5   6   7   5   6   7   8  
10   9  10  11   9   8   9  10   8   7   8   9   7   6   7   8   6   5   6   7   5   4   5   6   4   3   4   5   3   2   3   4   2   1   2   3   1   0   1   2   2   1   2   3   3   2   3   4   4   3   4   5   5   4   5   6   6   5   6   7  
11  10   9  10  10   9   8   9   9   8   7   8   8   7   6   7   7   6   5   6   6   5   4   5   5   4   3   4   4   3   2   3   3   2   1   2   2   1   0   1   3   2   1   2   4   3   2   3   5   4   3   4   6   5   4   5   7   6   5   6  
12  11  10   9  11  10   9   8  10   9   8   7   9   8   7   6   8   7   6   5   7   6   5   4   6   5   4   3   5   4   3   2   4   3   2   1   3   2   1   0   4   3   2   1   5   4   3   2   6   5   4   3   7   6   5   4   8   7   6   5  
10  11  12  13   9  10  11  12   8   9  10  11   7   8   9  10   6   7   8   9   5   6   7   8   4   5   6   7   3   4   5   6   2   3   4   5   1   2   3   4   0   1   2   3   1   2   3   4   2   3   4   5   3   4   5   6   4   5   6   7  
11  10  11  12  10   9  10  11   9   8   9  10   8   7   8   9   7   6   7   8   6   5   6   7   5   4   5   6   4   3   4   5   3   2   3   4   2   1   2   3   1   0   1   2   2   1   2   3   3   2   3   4   4   3   4   5   5   4   5   6  
12  11  10  11  11  10   9  10  10   9   8   9   9   8   7   8   8   7   6   7   7   6   5   6   6   5   4   5   5   4   3   4   4   3   2   3   3   2   1   2   2   1   0   1   3   2   1   2   4   3   2   3   5   4   3   4   6   5   4   5  
13  12  11  10  12  11  10   9  11  10   9   8  10   9   8   7   9   8   7   6   8   7   6   5   7   6   5   4   6   5   4   3   5   4   3   2   4   3   2   1   3   2   1   0   4   3   2   1   5   4   3   2   6   5   4   3   7   6   5   4  
11  12  13  14  10  11  12  13   9  10  11  12   8   9  10  11   7   8   9  10   6   7   8   9   5   6   7   8   4   5   6   7   3   4   5   6   2   3   4   5   1   2   3   4   0   1   2   3   1   2   3   4   2   3   4   5   3   4   5   6  
12  11  12  13  11  10  11  12  10   9  10  11   9   8   9  10   8   7   8   9   7   6   7   8   6   5   6   7   5   4   5   6   4   3   4   5   3   2   3   4   2   1   2   3   1   0   1   2   2   1   2   3   3   2   3   4   4   3   4   5  
13  12  11  12  12  11  10  11  11  10   9  10  10   9   8   9   9   8   7   8   8   7   6   7   7   6   5   6   6   5   4   5   5   4   3   4   4   3   2   3   3   2   1   2   2   1   0   1   3   2   1   2   4   3   2   3   5   4   3   4  
14  13  12  11  13  12  11  10  12  11  10   9  11  10   9   8  10   9   8   7   9   8   7   6   8   7   6   5   7   6   5   4   6   5   4   3   5   4   3   2   4   3   2   1   3   2   1   0   4   3   2   1   5   4   3   2   6   5   4   3  
12  13  14  15  11  12  13  14  10  11  12  13   9  10  11  12   8   9  10  11   7   8   9  10   6   7   8   9   5   6   7   8   4   5   6   7   3   4   5   6   2   3   4   5   1   2   3   4   0   1   2   3   1   2   3   4   2   3   4   5  
13  12  13  14  12  11  12  13  11  10  11  12  10   9  10  11   9   8   9  10   8   7   8   9   7   6   7   8   6   5   6   7   5   4   5   6   4   3   4   5   3   2   3   4   2   1   2   3   1   0   1   2   2   1   2   3   3   2   3   4  
14  13  12  13  13  12  11  12  12  11  10  11  11  10   9  10  10   9   8   9   9   8   7   8   8   7   6   7   7   6   5   6   6   5   4   5   5   4   3   4   4   3   2   3   3   2   1   2   2   1   0   1   3   2   1   2   4   3   2   3  
15  14  13  12  14  13  12  11  13  12  11  10  12  11  10   9  11  10   9   8  10   9   8   7   9   8   7   6   8   7   6   5   7   6   5   4   6   5   4   3   5   4   3   2   4   3   2   1   3   2   1   0   4   3   2   1   5   4   3   2  
13  14  15  16  12  13  14  15  11  12  13  14  10  11  12  13   9  10  11  12   8   9  10  11   7   8   9  10   6   7   8   9   5   6   7   8   4   5   6   7   3   4   5   6   2   3   4   5   1   2   3   4   0   1   2   3   1   2   3   4  
14  13  14  15  13  12  13  14  12  11  12  13  11  10  11  12  10   9  10  11   9   8   9  10   8   7   8   9   7   6   7   8   6   5   6   7   5   4   5   6   4   3   4   5   3   2   3   4   2   1   2   3   1   0   1   2   2   1   2   3  
15  14  13  14  14  13  12  13  13  12  11  12  12  11  10  11  11  10   9  10  10   9   8   9   9   8   7   8   8   7   6   7   7   6   5   6   6   5   4   5   5   4   3   4   4   3   2   3   3   2   1   2   2   1   0   1   3   2   1   2  
16  15  14  13  15  14  13  12  14  13  12  11  13  12  11  10  12  11  10   9  11  10   9   8  10   9   8   7   9   8   7   6   8   7   6   5   7   6   5   4   6   5   4   3   5   4   3   2   4   3   2   1   3   2   1   0   4   3   2   1  
14  15  16  17  13  14  15  16  12  13  14  15  11  12  13  14  10  11  12  13   9  10  11  12   8   9  10  11   7   8   9  10   6   7   8   9   5   6   7   8   4   5   6   7   3   4   5   6   2   3   4   5   1   2   3   4   0   1   2   3  
15  14  15  16  14  13  14  15  13  12  13  14  12  11  12  13  11  10  11  12  10   9  10  11   9   8   9  10   8   7   8   9   7   6   7   8   6   5   6   7   5   4   5   6   4   3   4   5   3   2   3   4   2   1   2   3   1   0   1   2  
16  15  14  15  15  14  13  14  14  13  12  13  13  12  11  12  12  11  10  11  11  10   9  10  10   9   8   9   9   8   7   8   8   7   6   7   7   6   5   6   6   5   4   5   5   4   3   4   4   3   2   3   3   2   1   2   2   1   0   1  
17  16  15  14  16  15  14  13  15  14  13  12  14  13  12  11  13  12  11  10  12  11  10   9  11  10   9   8  10   9   8   7   9   8   7   6   8   7   6   5   7   6   5   4   6   5   4   3   5   4   3   2   4   3   2   1   3   2   1   0  

 0   0  55   0  40   0   1   0   0   1   1   0   0   0   0   0   0   4   0   0   9   0   0  29   4   3   0   0   0   0   0   0   0   0   0  96   0   0   0   0   0   0  48   1   0  58   0   0  86   0  23   0   0   0   1   0   3   0   0   0  
 0   0   0   2   0   0   0   0   0   0   0   4   0   1   2   5   0  53  95   0   0   9   1   0  42   0  48   0   0   0   7   0   0   0   0  92   0   0   0   0  14  26   0   1   0   0   0   0   0   0   0   0   0   0   0   0   1   1   0   0  
 0   0   0   0   0   0  11   1   0   0   0   0   1   0   0   0   0   0   0  19   0   0   0   0   0   0  32   1   1  58   6   0   0   0   0   0   0   0   0   0   0   0  85   0   0   0   0   0   1   0  24   0   0   3   0   0   0  12   0   0  
 0   0   0   0   0   0   1   0   0   0   0   0   0   0   0   0   0   0   0   0   0  87   0   0  52   0  23   0   0   0   0   0   0   0   0   0   0   1   0   0   0   0   0   0   0   0   0   0   0  83   0   0   0   0   0   0   0   0   0  45  
 0   0  78   0   0   0   0   1   0   0   0   0   0   0   0   8   0   0  13   0   1   0   0   0   0   0   5   0   0   0   0   0   0   2   0   0  18   0   1   0   0   0   1   0   2   0   1   0   0  58   1   1   0   0   0   0   0   0  12   0  
 0   0   0   0   0   0  86   0   0   0   0   0   0   0   0   0   0   0   0   0   0   0   0   1   0   0   0   0   0   0   0   0   0   0   1  51   0   0   0   0   0   0   0   0   0   1   0   0   1  46   1   0   0   0   0  86   1   0   0   3  
 0   0   0   0   0   0   0   0   0   0   0  19   0   0   0   0   8   1   1   0   0   0   0   0   0   0   0   0  17   0   0  68   0   0   0   0  84   0   6   0   0   0   0   0   0  40   0   0   0   1   0   0   0   1   0  21   0   0   0   0  
 0   0   0   0   0   0   0   0   0   0   0   0   0   1   0   0   0  26   0   0   2   0   0   0   0   0  32   0   0   0   0  28   0   0   0   2   0   0   0   0   0   0  43   1   0   1   1   0   0   1   0   0   1   0   4   0   0   0   0   0  
 0   1  68  62  51   0   0   0   0   0   0   6   1   0   0   0   0   0   0   1   0  26  72   8   0   1   7   0   0   0   2   0   0   0   0   0   0   0   0   0   0   7   0   0   0   0   0   0  22   0   0   0   1   0   5   0   0   0   0   0  
 0   1   0   0   0   2   0   0   0   0   0   3   0   0   0   0  21   1   0   0   0   0   0  56   0   0   0   0   0   0   0   0   0   1   0   4   0   0   0   0   0   0   0  62   1   0   0   0   0   0   0   0   1  45   0   0   0   0  24   0  
27   0   0   0   0   0   0   1   0   0   0   0   0  10  82   0  40  92  32   0   0   1   0   0   0   0   0   0   0   4   0  86   0   0   0   9   0   0   1   0   5   1   0   0   0   1  40   0   0   1   0   0   0  48   0   0   1  33  79   1  
57   0   0   1   0  28   0   1   0   0   0   0   0   0   0   0   0   0  28   0   0   1   0   0   0  35  83   0  11  30   2   0   0   0   0  26  52   0   0   0   8   0   1   0  81   0   0   1   0  16  20   0   0   0   2   0   0   1  19   0  
 0   0   0   0   0   0   0   0   0   0   0   0   0   4   0   0   1   0   0   0   0   0   0  74   0   0   0   0   1  34  48   0   0   0   0   0  98   0   0   0   0   0   0  25   1   9   4   9   0   0   0   0   0   0   0   0   0   0   0   0  
 0   0   0   0   0   1   2   0   0   0   0   0   0   0   0  33   0   0   0   0   0   0   0   0   6   0   0   2   0   0   0   0   0   0   0   0   0   0   0   0   0   0   0   0   0   0   0   0   3   0  28  21   0   0   0   0   1   1   0   0  
 0   0   0   0   0   0   0   0   0  75   0   2   0   0   0   0   0   0   0   0   0   7  72   0   0   8   0  62   2  53   0   0   0   0   0   0   0   1   0   0   0   0   0   0   0   0   0   0   1  32   0   1   0   1   0   0   0   0   0   1  
 0  64   0   0   0   5   0   0   0   0  38   0   0   0   0   0   2   0   1  88   0   0  36   0   0   0  24   0   0   0   7   4   0   0   0   0   1   0   0   0   0   0   0   0   0   1   0   0   0   0   1   0  63   0   1   0   1   0  79   0  
 0   0   0   0  91   7   0  22   0   0  33   0   0  55   0   0   0   0   0   1   0   0   0  17   0  15   0  79   0   0   0   0   0   0   0   0   0   0   4   0   0   0   0   0   0   0   0   0   1   0   0   0   0   0   0   0   0   0   0   0  
13   0   0   0   0   0   3   0   0   0   0   0  22   0   0  92   0   0   0   0   3  68   0  13   0   0   0   0  45   0   0   0   0  11   0   0   0   0   0   0   0   0   0   0   0   0   0   0  87   0   0   0   0   0   0   0   0  23   0   3  
 0  77   0   0   1   0   0   0   0   0   0   0   0   0   0   0   0   0   0   0   0   0   0   4   0   0  67   9  13   0   0   0   0   0   0   0   0   0   0   0  23   3   0   0   0   1   0   0   0  19   1   0   0  51  54  17   0   0   0   0  
 0   1   0   0   0   0   0   0   0   1   0  12   0   0   0   0   0   0   0   0   0   0   0   0   0   0   0   0   0   0   0  18   0   0   0   0   1   0   0   0  12   0  37  64   0   0   2   0   0  13   0   0   0   0   1   0   0   0   0   0  
 0   0   0   0   1   5  91   0   0   0   0  69   0   0   0   0   0   0  23   1   0   0   0   1   0   0   0   0   0  55   0   0   0   0   1  10   0   0   0   0   0   0   0   1   0   0   0   0   1   0   0   0   0  27   0   0   0   0   1   0  
 0   0   1   1   0   0   2   1   0   0   0   0   5   0   0   0   0   0   0   0   0   0   1   0   0   0   0   0  26   1  36   4   0   0   0   0   0   0   0   0   0   8   0   0   0   0   3  12   1   0   0   0   0  73   0   0   0   0   7   0  
 1   0   0   0   0   0   0   0   0   0   0  61   0   0   0   1   0  14   0   0  42   0   0   0   0   0   0   1   0   0   0   0   0   0   0  97   0   1   1  72  48   0  32   0   0   0   0  18   1   0   0   9   0   1   0   0   0   0   0   0  
 0   0   0  26   0  44   0   0   0   0   8   0   0   0   0   0   0   0   1  96   0   0   0   0   0   0   0   0   0   0   0   1   2   0   0   0   0   0   0   0  47  19   0   0   0   0   0   0   0   0   1   0   0   1   0  68  39   0   0   0  
 0   0   0   0  24   1   0   0   0   0   0   0  81   0  52   0   0   0   0   0  26   0   0   0   0   0   1   0   0   1   0   0  35   0   1   0   7   0   0   0  29  56  19   0   0   0   1   3   0   0   0  94   0   3   0  92   0   0   0   0  
35   1   1   0   0   0   0   0   3   0   0   1   0   0   0   0   1   0  47   0   0   0   0   1   0   0   0   0  75   0   0  10   1  71   0   0   0   0   0   0   0   0   0   0   1   0   0   0   0   0   0   0   0   0   0   0   1   0  10   0  
 1   0   0   0  22   0   0   0   0  39   0   5  68   0   0   0   3   0   2   0   1   0   0   0   0   0   0   0   0  65   0   0   0   1   0   0   0   0   0   0   0   0   1   0  29   0   0   0  66   0   1  56   0   0  30  15   0   0   0   1  
 1   0  30   0   1   0   0   0   0   0  17   0   0   0   0   0   0   0   0  89   8   0   1   0  13  69  34   0   0   1   0   0   1   0   0   9   0   0   0   6   0   3   0   0   0   2   0   0   0   0  53   0   0  54   0   0   0   0   0   6  
 0   0  60   0   0   1   0   0  81   0   0   0   0   0   0   6   0   0   0   1   0   1   0   0   0  11   0   1   0   0   1   1   0   5   1   1   0   0   0   7   0   0   0   0   0   7   0   0   0   0   0   0   0   0   0   0   1   1   0   0  
 0   0   0   0   0   0   0   0   0   0   0   0  74   0   1   0   0   0  67   0   0   0   0   0   0   1   0   0   0   0   0   1   0   0   0   1   0   3   0   0  30   0   0   0   0   0   1   0   0   0   0   0  62   0   1   0   0   0   0  83  
 0   0   0   2   0   0  17   0  51   0   0   0  97   0   1   0   0   0   0   0   4  21   0  98   0   0   0   0   0   5   0   0   0   0   1   0   0   0   0   1   1   0   0   0   0   0   0   0   0   0   0   0  64   0  66   0   9   0   0   0  
 1   0   0   0   0   0   0  22  11   0  63   0   0   0   5  17  68   0   0   1   0   0   0   0   0   0   0   0   2  24   0   0   0   0   0   0   1  10   0   0   0   0   0   0   0  75   0   0   0   0   0   0  93  46   0   0   0   2  64   0  
 0   0  66   0   0   0   1   0   0  12   0   0   0   0   0  30  78   0   0   0   2   0   1   0  13   0   0  88   0   0   0   0   0   7   0   0   0   0   0   0   0   0   1   0   0   1   0   1  53   2   0   2   3   1   0   0   0   0   0   0  
 1   0   1   0   0   0   0   0   0   1   0   0   0  10   7   0   4   0   0   0   0   0   0   0   0   0   0   0   0   0   0   0   0   0   0  20  26   0   0   0   0   3  63   0   0   0   0  24   0   3   0   0   0   0   0   0   0   0   0   0  
 9   1   0   1   0   0   0   0   0   0   0  19   0   1   0   0   0   0  58   0   0   0   0   0   0  96   0   5   0   0   0   0   0   0   0   0   0   0   0   2   0   0   0   0   0   1   0   0   0   0   0   0   0   0   0   0   1   0   0   0  
30   0   0   0   0   0  85   0   9   0   0   0   9   0   0   0   0   0   0   0   1  63  61   0   0   0   0   0   0   0   0   0   0   0   0   0   0   0   8  74   1   0   0   0   0   0   0   0   0   0   0   0   0   0   0  32   0   1   3   0  
 0   0   0   4   0   1  17   7   0   1   1   0  33   0   0  58   0   0   1   0   0   0   0  83   5   0   0   1   0   0  16   0   0   0   0  32   0   0   0   0   0   0   0   0   0   0   0   0   0   0   0   2  45   0   0   0   0   0   0   0  
 0  47   0   0   0   0   0  18   0   0   0   0   0   0  85   0   0   1   0   0   0   0   0   0   0   0   1  16  89   0   0   0   0   0   0   0   1   0  18   0   0   0   0   0   0   0   0   0   0   0   0  24   0   0  16   0  20   0   1   0  
25  16   0   0   0   0   0   0   0  79   1   0  52   0   0   0   0   5   0   0   0   0   0  36   0   0   0   1   0   0   0   0   0  84   0   0   0   0   0   0   0   0   0   0   0   0   0   0   0  12   0   6   1   0   0   0   0   0   0   0  
 0  90   0   0   0   0   0   0   0   0   1   0   0  48   0   0   0   0   1  49   1   0   0   1   0   0   0  21   0   0  57   4   0   0  48   0   0   1   1   0   0   0   0   1   0   0   0   0   1   0   0  16   0   0   0   0   1  40  94   0  
 0   0   0   0   0   1   0   0   0  85   0   0   0   0   1   0   0   0  51   1   0   0   0   0   0   3   0   0   0   0   0   0   0   0   0   0   0   0   0   0   0   0   0   0   0  15   0   0   0   0   0   0   0   0   0   0   0  57   0   0  
 1  64  66   4   0   0   0   1   0   0   0   0   0   1   0   0   0   0   0   0  11   0   0   0  65   0   0   0   0  19   0   0   0   0   0   0  15   0   0  35   0   0   0   0   0   0   0   0   0   1   0   0   0   0   0   1   0   0   0   0  
88   0   0   0   0   0   0   0   0   0   0  10  23  32   8   0   0  48   0   0  17   0   0   0   0   0  25  33   6   0   0   0   1  16   0   0  43   0   0   0   0   0   0   5  11   0  14   0   0   2   0   0   0   0   0   0   0   0   0   0  
30   0   0   0   0   0  62  18   0   0   0  56   0   0   0   0   0   3   0   0   0   0   0   0   0   0   0   0   0   0  63   0   0   0   0   0   0   5   0   1   0   0   0   0   0   0   7   1   0   0   0   0   0   0   0   0   0   0   0   0  
 0   6   0   0   0   0   0   0   1   0   0  44   0   0   0   0  14   0   0   0   0   0   0   0   0  64   0   0   0   0   0   6   0  95   0   0   0   0   0   0   0   6   0   0   0   1   0   0   0   0   0  14   0   0   0  20   0   0   0   0  
 0   0   0  27   1   0   0   0   0   3   0   0   0   0   0   0  31   0   0   0   1   0   0   0   0   1   1   0   0   0   0  52   0   0   0   1   0   0   0   0   0   0   0   0   0   0   1  36   0   0   0   0   0   0   0  35   0   0   0   0  
 0  28   0  29   0   0   0   0   0   0   0   0   0   0   7   0   2   0   0   0   0  99  67   0   0   0   0   0   0   0   0   0   0   0   0  37  57   0   0   1   0   1   0   0   1  91   0   0   0   0   0  16   0   0   3   0  43   0   0   0  
 0   0   0   0   0   0   0   1   1   0   0   0   0   0   0   1   0   0   0   0   0   0   2   0   1   4   1   2   0  24   0   0  37  29   9   0   1   0   0   0   0   0   0   0   0  39   0   0   0   0   0   0   0   0   0   0   1   0   0   0  
 8   0   0   0  19   0   0   0   0   0   0   0  41   0  10   0   1   0   0   0  61   1   0   0   0  17   0   0   0   0   0   0   0   0   0   0   0   0   0   0   0   0   0  22  42   0   0   0   0   0   0   0   0   0   0   1   0   0   0   0  
 1   0   0   0   0   1   0   0   0   0   0  50   1   0  88   0   7   0   0   0   2   0   0   1   0   0   1   0   0   1   1  17  70   0   0   0   0   8   0   0   2   0   0   0   0   0   0   0   0   0   1   0   0   0   0  29   0   0   0   0  
 0   0   0   1   0   0   0   0   0   0   0   0   0   0   0   4   0   0   0   0   0   0  16   0   0  66   0   0   0   0   0   0   0   0   0   1   0  54   0   0   0   0  31   1   0   0   0   0   0   0   0   0   0   0  42   0   0  44   0   2  
 0   1   1   0   0   6   0   0   1   0   0   0   0   0   0  50  22   0   0   0   0   0   0   0   0  93  26   0   0   0   0  34   0   0   0   0   0   0   0   0   0   0  16   0   0   0   1   1   0   0   0   0  11  27   0   0  83   0   0  10  
30   0   0  19   0   4   0   1   0   0   0   0   0   0   8   0   2   0   0  55  12   0   0  32   0   0   0  83   0   0   1   0   0   0   0   0   0   0   0  16   0   1   0   0   0   0   1  94   0  39   0   0   0   1   0  39  46  38   0  83  
 0   0   0   0   0   0   0   0   1   0   0   0   0   0   0   0   8   0   0  10   0  35   0  16   0   0   0   0   0   0   0   0   0   0  74   0   1   3   0  22   0   0   0   0   0   0   0   0  45   0   0   2   0   0   0   5   0   0   0   0  
 0  65   0   0   0   1   1   0   0   0   0   1   0   0   0   0   0   0   0   0   0   0   0   0   0   1   0   0   0  58   0   0   0   0   0   1   0   0   0   0   0  18   0   0  35  17   0   0  45   0   1   0   0   0   0   1   0   0   0   0  
 0   0   0   0   1  19   0   0   0   0   0   0   0   1   0   0   0   0   0   0   2   0   0   0  91   1   0   0   0   0   0   0   0   0   0   0   0   0   1   1   0   0   1   0   0  97  60   0   0   0  85  10   1   1   0   0   0   0   0   4  
 0   0   1   0   0   0   1   0   0   0   0   1   0   0   0   0   0   0   1   0   1   0  33   0   0   0   0   7   0   0   0   0   0   0   0   0   9   0   0   0   0   0  56   0   0   0   0   0   0   0   0   0   0   1   0   0   0   0   0   0  
 0   2   0   0   1   0   0   0   0   0   0   0   0   0   0   0   0   0   0   0   0   0   0   0   0   0   0  34   0   0   0   1   0   1   0   0  17   9   0   0   0   0  70   0   0   0   0  54   0   0  66   0   0  47   0   1   0   0   0   1  
 1   1   0   0  18   1   0   0   0   0   0   0   0   0   1   0   0   0   0   0  13  16  85   1   0   1   0   0  20   0  13  15   0   0   0   1   0   0  27   0   0   0   0   0  51   0  30   0   0   0   0   1   0   0   0   0   0   1   0   0  
12   0  35   0   0  16  60   0   1   0   0   0   0   0   0   0   0  36   0   0   0   0   0   0  78   0  25   1  49   0   0   0   0   0   0   1   0   0   4   0   0  91   0   0   0   1   0   0   0   0   0   1  29   0   0   0   1   1   0   0  
